language Essence 1.3

letting blksize_delta be
        function(1 --> 10, 2 --> 10, 3 --> 10, 4 --> 10, 5 --> 10, 6 --> 10, 7 --> 10, 8 --> 10, 9 --> 10, 10 --> 10,
                 11 --> 10, 12 --> 10, 13 --> 10, 14 --> 10, 15 --> 10, 16 --> 10, 17 --> 10, 18 --> 10, 19 --> 10,
                 20 --> 10, 21 --> 10, 22 --> 10, 23 --> 10)
letting maxcars be
        function(1 --> 9, 2 --> 9, 3 --> 9, 4 --> 9, 5 --> 9, 6 --> 9, 7 --> 9, 8 --> 9, 9 --> 9, 10 --> 10, 11 --> 9,
                 12 --> 9, 13 --> 9, 14 --> 9, 15 --> 9, 16 --> 10, 17 --> 9, 18 --> 9, 19 --> 9, 20 --> 9, 21 --> 9,
                 22 --> 9, 23 --> 9)
letting n_cars be 228
letting n_classes be 30
letting n_options be 23
letting quantity be
        function(1 --> 7, 2 --> 7, 3 --> 7, 4 --> 7, 5 --> 7, 6 --> 7, 7 --> 7, 8 --> 14, 9 --> 7, 10 --> 7, 11 --> 7,
                 12 --> 7, 13 --> 7, 14 --> 7, 15 --> 7, 16 --> 7, 17 --> 9, 18 --> 9, 19 --> 7, 20 --> 7, 21 --> 7,
                 22 --> 7, 23 --> 7, 24 --> 7, 25 --> 7, 26 --> 7, 27 --> 7, 28 --> 7, 29 --> 7, 30 --> 14)
letting usage be
        relation((1, 6), (1, 11), (1, 22), (2, 12), (2, 21), (3, 15), (3, 19), (3, 23), (4, 1), (4, 16), (4, 23),
                 (5, 13), (5, 19), (5, 21), (5, 22), (6, 10), (6, 13), (7, 13), (8, 13), (9, 7), (9, 13), (9, 15),
                 (9, 16), (9, 21), (10, 7), (10, 12), (10, 15), (11, 2), (11, 3), (11, 17), (11, 19), (12, 16),
                 (12, 19), (13, 6), (14, 6), (14, 11), (14, 16), (15, 2), (15, 11), (15, 15), (15, 16), (16, 23),
                 (17, 2), (17, 6), (17, 18), (17, 23), (18, 6), (18, 7), (18, 10), (19, 19), (19, 23), (20, 5),
                 (20, 10), (20, 13), (20, 14), (20, 17), (21, 9), (21, 14), (22, 4), (22, 7), (22, 14), (23, 14),
                 (23, 16), (24, 14), (24, 19), (24, 23), (25, 1), (25, 7), (25, 20), (26, 9), (26, 16), (27, 1),
                 (27, 6), (28, 7), (28, 8), (28, 14), (28, 17), (29, 23), (30, 14))
$ Visualisation for usage
$  1  6
$  1 11
$  1 22
$  2 12
$  2 21
$  3 15
$  3 19
$  3 23
$  4  1
$  4 16
$  4 23
$  5 13
$  5 19
$  5 21
$  5 22
$  6 10
$  6 13
$  7 13
$  8 13
$  9  7
$  9 13
$  9 15
$  9 16
$  9 21
$ 10  7
$ 10 12
$ 10 15
$ 11  2
$ 11  3
$ 11 17
$ 11 19
$ 12 16
$ 12 19
$ 13  6
$ 14  6
$ 14 11
$ 14 16
$ 15  2
$ 15 11
$ 15 15
$ 15 16
$ 16 23
$ 17  2
$ 17  6
$ 17 18
$ 17 23
$ 18  6
$ 18  7
$ 18 10
$ 19 19
$ 19 23
$ 20  5
$ 20 10
$ 20 13
$ 20 14
$ 20 17
$ 21  9
$ 21 14
$ 22  4
$ 22  7
$ 22 14
$ 23 14
$ 23 16
$ 24 14
$ 24 19
$ 24 23
$ 25  1
$ 25  7
$ 25 20
$ 26  9
$ 26 16
$ 27  1
$ 27  6
$ 28  7
$ 28  8
$ 28 14
$ 28 17
$ 29 23
$ 30 14

